50 8
575 198
317 549
892 657
238 645
966 927
466 689
533 447
566 268
187 151
235 333
568 380
613 378
552 400
476 522
623 682
680 407
858 922
187 628
599 169
543 885
151 112
191 527
405 68
130 737
491 695
609 361
671 550
441 642
353 185
183 696
141 129
149 574
550 295
606 341
588 651
198 753
230 629
805 642
844 614
376 228
664 263
545 437
417 243
92 657
578 475
233 701
490 424
41 729
314 107
340 141
